Strategies:  

WARNING: for repeatability, setting FPU to use double precision
============================[ Problem Statistics ]=============================
|                                                                             |
|  Number of variables:           999                                         |
|  Number of clauses:            9072                                         |
|  Parse time:                   0.00 s                                       |
|  Eliminated clauses:           0.00 Mb                                      |
|  Simplification time:          0.00 s                                       |
|                                                                             |
============================[ Search Statistics ]==============================
| Conflicts |          ORIGINAL         |          LEARNT          | Progress |
|           |    Vars  Clauses Literals |    Limit  Clauses Lit/Cl |          |
===============================================================================
===============================================================================
restarts              : 1
conflicts             : 3              (750 /sec)
decisions             : 6              (0.00 % random) (1500 /sec)
propagations          : 1139           (284750 /sec)
conflict literals     : 10             (0.00 % deleted)
Memory used           : 22.00 MB
CPU time              : 0.004 s

SATISFIABLE


Strategies: -b -p  

WARNING: for repeatability, setting FPU to use double precision
============================[ Problem Statistics ]=============================
|                                                                             |
|  Number of variables:           999                                         |
|  Number of clauses:          338580                                         |
|  Parse time:                   0.26 s                                       |
|  Eliminated clauses:           0.00 Mb                                      |
|  Simplification time:         23.16 s                                       |
|                                                                             |
============================[ Search Statistics ]==============================
| Conflicts |          ORIGINAL         |          LEARNT          | Progress |
|           |    Vars  Clauses Literals |    Limit  Clauses Lit/Cl |          |
===============================================================================
===============================================================================
restarts              : 1
conflicts             : 0              (0 /sec)
decisions             : 2              (0.00 % random) (0 /sec)
propagations          : 729            (31 /sec)
conflict literals     : 0              (-nan % deleted)
Memory used           : 90.00 MB
CPU time              : 23.42 s

SATISFIABLE


Strategies: -b -x  

WARNING: for repeatability, setting FPU to use double precision
============================[ Problem Statistics ]=============================
|                                                                             |
|  Number of variables:           999                                         |
|  Number of clauses:          302292                                         |
|  Parse time:                   0.20 s                                       |
|  Eliminated clauses:           0.00 Mb                                      |
|  Simplification time:          0.31 s                                       |
|                                                                             |
============================[ Search Statistics ]==============================
| Conflicts |          ORIGINAL         |          LEARNT          | Progress |
|           |    Vars  Clauses Literals |    Limit  Clauses Lit/Cl |          |
===============================================================================
===============================================================================
restarts              : 1
conflicts             : 0              (0 /sec)
decisions             : 2              (0.00 % random) (4 /sec)
propagations          : 729            (1424 /sec)
conflict literals     : 0              (-nan % deleted)
Memory used           : 77.00 MB
CPU time              : 0.512 s

SATISFIABLE


Strategies: -b -x -p  

WARNING: for repeatability, setting FPU to use double precision
============================[ Problem Statistics ]=============================
|                                                                             |
|  Number of variables:           999                                         |
|  Number of clauses:          628884                                         |
|  Parse time:                   0.42 s                                       |
|  Eliminated clauses:           0.00 Mb                                      |
|  Simplification time:         23.22 s                                       |
|                                                                             |
============================[ Search Statistics ]==============================
| Conflicts |          ORIGINAL         |          LEARNT          | Progress |
|           |    Vars  Clauses Literals |    Limit  Clauses Lit/Cl |          |
===============================================================================
===============================================================================
restarts              : 1
conflicts             : 0              (0 /sec)
decisions             : 2              (0.00 % random) (0 /sec)
propagations          : 729            (31 /sec)
conflict literals     : 0              (-nan % deleted)
Memory used           : 142.00 MB
CPU time              : 23.636 s

SATISFIABLE


Strategies: -b -a  

WARNING: for repeatability, setting FPU to use double precision
============================[ Problem Statistics ]=============================
|                                                                             |
|  Number of variables:           999                                         |
|  Number of clauses:          956772                                         |
|  Parse time:                   0.80 s                                       |
|  Eliminated clauses:           0.00 Mb                                      |
|  Simplification time:          2.12 s                                       |
|                                                                             |
============================[ Search Statistics ]==============================
| Conflicts |          ORIGINAL         |          LEARNT          | Progress |
|           |    Vars  Clauses Literals |    Limit  Clauses Lit/Cl |          |
===============================================================================
===============================================================================
restarts              : 1
conflicts             : 0              (0 /sec)
decisions             : 2              (0.00 % random) (1 /sec)
propagations          : 729            (250 /sec)
conflict literals     : 0              (-nan % deleted)
Memory used           : 287.00 MB
CPU time              : 2.916 s

SATISFIABLE


Strategies: -b  

WARNING: for repeatability, setting FPU to use double precision
============================[ Problem Statistics ]=============================
|                                                                             |
|  Number of variables:           999                                         |
|  Number of clauses:           11988                                         |
|  Parse time:                   0.01 s                                       |
|  Eliminated clauses:           0.00 Mb                                      |
|  Simplification time:          0.02 s                                       |
|                                                                             |
============================[ Search Statistics ]==============================
| Conflicts |          ORIGINAL         |          LEARNT          | Progress |
|           |    Vars  Clauses Literals |    Limit  Clauses Lit/Cl |          |
===============================================================================
===============================================================================
restarts              : 1
conflicts             : 0              (0 /sec)
decisions             : 2              (0.00 % random) (83 /sec)
propagations          : 729            (30375 /sec)
conflict literals     : 0              (-nan % deleted)
Memory used           : 23.00 MB
CPU time              : 0.024 s

SATISFIABLE


